(set-info :origin "SVCOMP13 benchmarks generated by Arie Gurfinkel")
(set-info :status sat)
(set-logic HORN)
(declare-fun cp-rel-entry () Bool)
(declare-fun cp-rel-bb2.i.i36.i.i () Bool)
(declare-fun cp-rel-bb1.i.i (Real Real Real) Bool)
(assert |cp-rel-entry|)
(assert (forall ((?A Real) (?B Real) (?C Real) (?D Bool) )(let (($x244912 (and |cp-rel-entry| (<= ?C 1.0) (>= ?B 0.0) (<= ?B 0.0) (>= ?A 0.0) (<= ?A 0.0) (= ?D true) (>= ?C 1.0))))
(=> $x244912 (|cp-rel-bb1.i.i| ?A ?B ?C))))
)
(assert (forall ((?A Real) (?B Real) (?C Real) (?D Real) (?E Real) (?F Real) (?G Bool) (?H Bool) (?I Bool) (?J Bool) (?K Bool) (?L Bool) (?M Real) (?N Real) (?O Bool) (?P Bool) (?Q Bool) (?R Bool) (?S Bool) (?T Bool) (?U Real) (?V Real) (?W Bool) (?X Bool) (?Y Bool) (?Z Bool) (?A1 Bool) (?B1 Bool) (?C1 Bool) (?D1 Bool) (?E1 Bool) (?F1 Bool) (?G1 Bool) (?H1 Bool) (?I1 Bool) (?J1 Bool) (?K1 Real) (?L1 Real) (?M1 Real) (?N1 Bool) (?O1 Bool) (?P1 Real) (?Q1 Bool) (?R1 Bool) (?S1 Real) (?T1 Bool) (?U1 Real) (?V1 Real) (?W1 Bool) (?X1 Bool) (?Y1 Real) (?Z1 Bool) (?A2 Bool) (?B2 Bool) (?C2 Bool) (?D2 Bool) )(let (($x312732 (|cp-rel-bb1.i.i| ?D ?E ?F)))
(let (($x425273 (= ?R1 (and ?Z ?D2))))
(let (($x343056 (or (not ?G) (and ?H ?I (not ?J)))))
(let (($x855196 (or (not ?G) ?I)))
(let (($x864207 (not ?K)))
(let (($x143398 (or $x864207 (and ?G ?L (<= ?M ?N) (>= ?M ?N)) (and ?H ?O ?J (<= ?M ?C) (>= ?M ?C)))))
(let (($x61857 (or $x864207 (and ?L (not ?O)) (and ?O (not ?L)))))
(let (($x293443 (or (not ?P) (and ?K ?Q (not ?R)))))
(let (($x565546 (or (not ?P) ?Q)))
(let (($x163597 (not ?S)))
(let (($x900312 (or $x163597 (and ?P ?T (<= ?U ?V) (>= ?U ?V)) (and ?K ?W ?R (<= ?U ?B) (>= ?U ?B)))))
(let (($x837190 (or $x163597 (and ?T (not ?W)) (and ?W (not ?T)))))
(let (($x582527 (or (not ?X) (and ?S ?Y ?Z))))
(let (($x480103 (or (not ?X) ?Y)))
(let (($x553969 (or (not ?A1) (and ?S ?B1 (not ?Z)))))
(let (($x428002 (or (not ?A1) ?B1)))
(let (($x19417 (or (not ?C1) (and ?X ?D1 ?E1))))
(let (($x765394 (or (not ?C1) ?D1)))
(let (($x291972 (or (not ?F1) (and ?A1 ?G1 ?H1))))
(let (($x353214 (or (not ?F1) ?G1)))
(let (($x233829 (>= ?K1 ?P1)))
(let (($x205924 (<= ?K1 ?P1)))
(let (($x320909 (and ?A1 ?Q1 (not ?H1) $x205924 $x233829 (<= ?L1 0.0) (>= ?L1 0.0))))
(let (($x100756 (>= ?K1 ?M)))
(let (($x152948 (<= ?K1 ?M)))
(let (($x168335 (not ?I1)))
(let (($x54957 (or $x168335 (and ?C1 ?J1 $x152948 $x100756 (<= ?L1 ?M1) (>= ?L1 ?M1)) (and ?X ?N1 (not ?E1) $x152948 $x100756 (<= ?L1 ?A) (>= ?L1 ?A)) (and ?F1 ?O1 $x205924 $x233829 (<= ?L1 ?A) (>= ?L1 ?A)) $x320909)))
(let (($x571456 (or $x168335 (and ?J1 (not ?N1) (not ?O1) (not ?Q1)) (and ?N1 (not ?J1) (not ?O1) (not ?Q1)) (and ?O1 (not ?J1) (not ?N1) (not ?Q1)) (and ?Q1 (not ?J1) (not ?N1) (not ?O1)))))
(let (($x156542 (= ?I1 true)))
(let (($x255985 (= ?J (= ?S1 0.0))))
(let (($x351474 (= ?U1 (ite ?T1 1.0 0.0))))
(let (($x866522 (= ?R (= ?V1 0.0))))
(let (($x355523 (= ?V (ite ?W1 1.0 0.0))))
(let (($x299908 (= ?E1 (not (<= ?M 1.0)))))
(let (($x378161 (= ?X1 (not (<= ?M 0.0)))))
(let (($x244211 (= ?Y1 (+ (~ 1.0) ?M))))
(let (($x148428 (= ?P1 (ite ?X1 ?Y1 ?M))))
(let (($x845356 (= ?H1 (= ?P1 0.0))))
(let (($x54810 (= ?Z1 (= ?U 0.0))))
(let (($x134909 (= ?A2 (= ?K1 2.0))))
(let (($x565188 (= ?B2 (= ?L1 0.0))))
(let (($x397957 (= ?C2 (or ?B2 ?A2))))
(let (($x387962 (= ?D2 (not ?C2))))
(let (($x49825 (and (|cp-rel-bb1.i.i| ?A ?B ?C) $x387962 $x397957 $x565188 $x134909 (= ?M1 (ite ?Z1 1.0 ?A)) $x54810 $x845356 $x148428 $x244211 $x378161 $x299908 (= ?Z (= ?A 0.0)) $x355523 (= ?W1 (= ?B 0.0)) $x866522 (= ?N (+ ?U1 ?C)) $x351474 (= ?T1 (not (<= 2.0 ?C))) $x255985 (>= ?F ?K1) (<= ?F ?K1) (>= ?E ?U) (<= ?E ?U) (>= ?D ?L1) (<= ?D ?L1) (not (= ?R1 true)) $x156542 $x571456 $x54957 $x353214 $x291972 $x765394 $x19417 $x428002 $x553969 $x480103 $x582527 $x837190 $x900312 $x565546 $x293443 $x61857 $x143398 $x855196 $x343056 $x425273)))
(=> $x49825 $x312732))))))))))))))))))))))))))))))))))))))))))))))
)
(assert (forall ((?A Real) (?B Real) (?C Real) (?D Bool) (?E Bool) (?F Bool) (?G Bool) (?H Bool) (?I Bool) (?J Real) (?K Real) (?L Bool) (?M Bool) (?N Bool) (?O Bool) (?P Bool) (?Q Bool) (?R Real) (?S Real) (?T Bool) (?U Bool) (?V Bool) (?W Bool) (?X Bool) (?Y Bool) (?Z Bool) (?A1 Bool) (?B1 Bool) (?C1 Bool) (?D1 Bool) (?E1 Bool) (?F1 Bool) (?G1 Bool) (?H1 Real) (?I1 Real) (?J1 Real) (?K1 Bool) (?L1 Bool) (?M1 Real) (?N1 Bool) (?O1 Bool) (?P1 Real) (?Q1 Bool) (?R1 Real) (?S1 Real) (?T1 Bool) (?U1 Bool) (?V1 Real) (?W1 Bool) (?X1 Bool) (?Y1 Bool) (?Z1 Bool) (?A2 Bool) )(let (($x425273 (= ?O1 (and ?W ?A2))))
(let (($x343056 (or (not ?D) (and ?E ?F (not ?G)))))
(let (($x855196 (or (not ?D) ?F)))
(let (($x864207 (not ?H)))
(let (($x306100 (or $x864207 (and ?D ?I (<= ?J ?K) (>= ?J ?K)) (and ?E ?L ?G (<= ?J ?C) (>= ?J ?C)))))
(let (($x61857 (or $x864207 (and ?I (not ?L)) (and ?L (not ?I)))))
(let (($x293443 (or (not ?M) (and ?H ?N (not ?O)))))
(let (($x565546 (or (not ?M) ?N)))
(let (($x163597 (not ?P)))
(let (($x384300 (or $x163597 (and ?M ?Q (<= ?R ?S) (>= ?R ?S)) (and ?H ?T ?O (<= ?R ?B) (>= ?R ?B)))))
(let (($x837190 (or $x163597 (and ?Q (not ?T)) (and ?T (not ?Q)))))
(let (($x582527 (or (not ?U) (and ?P ?V ?W))))
(let (($x480103 (or (not ?U) ?V)))
(let (($x553969 (or (not ?X) (and ?P ?Y (not ?W)))))
(let (($x428002 (or (not ?X) ?Y)))
(let (($x19417 (or (not ?Z) (and ?U ?A1 ?B1))))
(let (($x765394 (or (not ?Z) ?A1)))
(let (($x291972 (or (not ?C1) (and ?X ?D1 ?E1))))
(let (($x353214 (or (not ?C1) ?D1)))
(let (($x233829 (>= ?H1 ?M1)))
(let (($x205924 (<= ?H1 ?M1)))
(let (($x320909 (and ?X ?N1 (not ?E1) $x205924 $x233829 (<= ?I1 0.0) (>= ?I1 0.0))))
(let (($x100756 (>= ?H1 ?J)))
(let (($x152948 (<= ?H1 ?J)))
(let (($x168335 (not ?F1)))
(let (($x171409 (or $x168335 (and ?Z ?G1 $x152948 $x100756 (<= ?I1 ?J1) (>= ?I1 ?J1)) (and ?U ?K1 (not ?B1) $x152948 $x100756 (<= ?I1 ?A) (>= ?I1 ?A)) (and ?C1 ?L1 $x205924 $x233829 (<= ?I1 ?A) (>= ?I1 ?A)) $x320909)))
(let (($x571456 (or $x168335 (and ?G1 (not ?K1) (not ?L1) (not ?N1)) (and ?K1 (not ?G1) (not ?L1) (not ?N1)) (and ?L1 (not ?G1) (not ?K1) (not ?N1)) (and ?N1 (not ?G1) (not ?K1) (not ?L1)))))
(let (($x156542 (= ?F1 true)))
(let (($x235037 (= ?O1 true)))
(let (($x255985 (= ?G (= ?P1 0.0))))
(let (($x351474 (= ?R1 (ite ?Q1 1.0 0.0))))
(let (($x866522 (= ?O (= ?S1 0.0))))
(let (($x355523 (= ?S (ite ?T1 1.0 0.0))))
(let (($x299908 (= ?B1 (not (<= ?J 1.0)))))
(let (($x378161 (= ?U1 (not (<= ?J 0.0)))))
(let (($x244211 (= ?V1 (+ (~ 1.0) ?J))))
(let (($x148428 (= ?M1 (ite ?U1 ?V1 ?J))))
(let (($x845356 (= ?E1 (= ?M1 0.0))))
(let (($x54810 (= ?W1 (= ?R 0.0))))
(let (($x134909 (= ?X1 (= ?H1 2.0))))
(let (($x565188 (= ?Y1 (= ?I1 0.0))))
(let (($x397957 (= ?Z1 (or ?Y1 ?X1))))
(let (($x387962 (= ?A2 (not ?Z1))))
(let (($x312732 (|cp-rel-bb1.i.i| ?A ?B ?C)))
(let (($x214905 (and $x312732 $x387962 $x397957 $x565188 $x134909 (= ?J1 (ite ?W1 1.0 ?A)) $x54810 $x845356 $x148428 $x244211 $x378161 $x299908 (= ?W (= ?A 0.0)) $x355523 (= ?T1 (= ?B 0.0)) $x866522 (= ?K (+ ?R1 ?C)) $x351474 (= ?Q1 (not (<= 2.0 ?C))) $x255985 $x235037 $x156542 $x571456 $x171409 $x353214 $x291972 $x765394 $x19417 $x428002 $x553969 $x480103 $x582527 $x837190 $x384300 $x565546 $x293443 $x61857 $x306100 $x855196 $x343056 $x425273)))
(=> $x214905 |cp-rel-bb2.i.i36.i.i|)))))))))))))))))))))))))))))))))))))))))))))))
)
(assert (not cp-rel-bb2.i.i36.i.i))
(check-sat)
